out/production/KConstraintMultipleKnapsackProblem/zimpl/lpfiles/knapsack100nr4.lp
\ This file was automatically generated by Zimpl
\ param file := "instances/knapsack100nr4.txt";
\ param n := read file as "1n" use 1 comment "#";
\ do print n;
\ param m := read file as "1n" skip 1 use 1 comment "#";
\ do print m;
\ param k := read file as "1n" skip 2 use 1 comment "#";
\ do print k;
\ set Items := {1 to n};
\ set Knapsacks := {1 to m};
\ set Capacities := {1 to k};
\ param p[Items] := read file as "1n" skip 3 use n comment "#";
\ param w[Items*Capacities] := read file as "n+" skip 3+n use n comment "#";
\ param c[Knapsacks*Capacities] := read file as "n+" skip 3+2*n use m comment "#";
\ var x[Knapsacks * Items] binary;
\ maximize profit: sum <i> in Knapsacks: sum <j> in Items: p[j]* x[i,j];
\ subto cap: forall <i> in Knapsacks: forall <h> in Capacities: sum <j> in Items: w[j,h]*x[i,j] <= c[i,h];
\ subto one: forall <j> in Items: sum <i> in Knapsacks: x[i,j] <= 1;
\Problem name: zimplfiles/knapsack100nr4.zpl
Maximize
 profit:  +89 x#1#1 +37 x#1#2 +14 x#1#3 +48 x#1#4 +15 x#1#5 +93 x#1#6
  +22 x#1#7 +36 x#1#8 +49 x#1#9 +82 x#1#10 +96 x#1#11 +89 x#1#12
  +22 x#1#13 +27 x#1#14 +37 x#1#15 +41 x#1#16 +40 x#1#17 +48 x#1#18
  +98 x#1#19 +95 x#1#20 +3 x#1#21 +76 x#1#22 +95 x#1#23 +56 x#1#24
  +78 x#1#25 + x#1#26 +13 x#1#27 +14 x#1#28 +85 x#1#29 +86 x#1#30
  +23 x#1#31 +48 x#1#32 +45 x#1#33 +77 x#1#34 +60 x#1#35 +53 x#1#36
  +61 x#1#37 +18 x#1#38 +70 x#1#39 +18 x#1#40 +66 x#1#41 +41 x#1#42
  +91 x#1#43 +8 x#1#44 +55 x#1#45 +4 x#1#46 +37 x#1#47 +43 x#1#48
  +43 x#1#49 +14 x#1#50 + x#1#51 +14 x#1#52 +98 x#1#53 +96 x#1#54
  +85 x#1#55 +60 x#1#56 +40 x#1#57 +61 x#1#58 +96 x#1#59 +63 x#1#60
  +13 x#1#61 +14 x#1#62 +90 x#1#63 +63 x#1#64 +78 x#1#65 +11 x#1#66
  +20 x#1#67 +18 x#1#68 +5 x#1#69 +70 x#1#70 +58 x#1#71 +68 x#1#72
  +79 x#1#73 +65 x#1#74 +72 x#1#75 +82 x#1#76 +52 x#1#77 +23 x#1#78
  +16 x#1#79 +68 x#1#80 +73 x#1#81 +92 x#1#82 +81 x#1#83 +60 x#1#84
  +18 x#1#85 +34 x#1#86 +97 x#1#87 +29 x#1#88 +31 x#1#89 +97 x#1#90
  +97 x#1#91 +53 x#1#92 +51 x#1#93 +70 x#1#94 +67 x#1#95 +71 x#1#96
  +24 x#1#97 +84 x#1#98 +13 x#1#99 +31 x#1#100 +89 x#2#1 +37 x#2#2
  +14 x#2#3 +48 x#2#4 +15 x#2#5 +93 x#2#6 +22 x#2#7 +36 x#2#8
  +49 x#2#9 +82 x#2#10 +96 x#2#11 +89 x#2#12 +22 x#2#13 +27 x#2#14
  +37 x#2#15 +41 x#2#16 +40 x#2#17 +48 x#2#18 +98 x#2#19 +95 x#2#20
  +3 x#2#21 +76 x#2#22 +95 x#2#23 +56 x#2#24 +78 x#2#25 + x#2#26
  +13 x#2#27 +14 x#2#28 +85 x#2#29 +86 x#2#30 +23 x#2#31 +48 x#2#32
  +45 x#2#33 +77 x#2#34 +60 x#2#35 +53 x#2#36 +61 x#2#37 +18 x#2#38
  +70 x#2#39 +18 x#2#40 +66 x#2#41 +41 x#2#42 +91 x#2#43 +8 x#2#44
  +55 x#2#45 +4 x#2#46 +37 x#2#47 +43 x#2#48 +43 x#2#49 +14 x#2#50
  + x#2#51 +14 x#2#52 +98 x#2#53 +96 x#2#54 +85 x#2#55 +60 x#2#56
  +40 x#2#57 +61 x#2#58 +96 x#2#59 +63 x#2#60 +13 x#2#61 +14 x#2#62
  +90 x#2#63 +63 x#2#64 +78 x#2#65 +11 x#2#66 +20 x#2#67 +18 x#2#68
  +5 x#2#69 +70 x#2#70 +58 x#2#71 +68 x#2#72 +79 x#2#73 +65 x#2#74
  +72 x#2#75 +82 x#2#76 +52 x#2#77 +23 x#2#78 +16 x#2#79 +68 x#2#80
  +73 x#2#81 +92 x#2#82 +81 x#2#83 +60 x#2#84 +18 x#2#85 +34 x#2#86
  +97 x#2#87 +29 x#2#88 +31 x#2#89 +97 x#2#90 +97 x#2#91 +53 x#2#92
  +51 x#2#93 +70 x#2#94 +67 x#2#95 +71 x#2#96 +24 x#2#97 +84 x#2#98
  +13 x#2#99 +31 x#2#100 +89 x#3#1 +37 x#3#2 +14 x#3#3 +48 x#3#4
  +15 x#3#5 +93 x#3#6 +22 x#3#7 +36 x#3#8 +49 x#3#9 +82 x#3#10
  +96 x#3#11 +89 x#3#12 +22 x#3#13 +27 x#3#14 +37 x#3#15 +41 x#3#16
  +40 x#3#17 +48 x#3#18 +98 x#3#19 +95 x#3#20 +3 x#3#21 +76 x#3#22
  +95 x#3#23 +56 x#3#24 +78 x#3#25 + x#3#26 +13 x#3#27 +14 x#3#28
  +85 x#3#29 +86 x#3#30 +23 x#3#31 +48 x#3#32 +45 x#3#33 +77 x#3#34
  +60 x#3#35 +53 x#3#36 +61 x#3#37 +18 x#3#38 +70 x#3#39 +18 x#3#40
  +66 x#3#41 +41 x#3#42 +91 x#3#43 +8 x#3#44 +55 x#3#45 +4 x#3#46
  +37 x#3#47 +43 x#3#48 +43 x#3#49 +14 x#3#50 + x#3#51 +14 x#3#52
  +98 x#3#53 +96 x#3#54 +85 x#3#55 +60 x#3#56 +40 x#3#57 +61 x#3#58
  +96 x#3#59 +63 x#3#60 +13 x#3#61 +14 x#3#62 +90 x#3#63 +63 x#3#64
  +78 x#3#65 +11 x#3#66 +20 x#3#67 +18 x#3#68 +5 x#3#69 +70 x#3#70
  +58 x#3#71 +68 x#3#72 +79 x#3#73 +65 x#3#74 +72 x#3#75 +82 x#3#76
  +52 x#3#77 +23 x#3#78 +16 x#3#79 +68 x#3#80 +73 x#3#81 +92 x#3#82
  +81 x#3#83 +60 x#3#84 +18 x#3#85 +34 x#3#86 +97 x#3#87 +29 x#3#88
  +31 x#3#89 +97 x#3#90 +97 x#3#91 +53 x#3#92 +51 x#3#93 +70 x#3#94
  +67 x#3#95 +71 x#3#96 +24 x#3#97 +84 x#3#98 +13 x#3#99 +31 x#3#100
  +89 x#4#1 +37 x#4#2 +14 x#4#3 +48 x#4#4 +15 x#4#5 +93 x#4#6
  +22 x#4#7 +36 x#4#8 +49 x#4#9 +82 x#4#10 +96 x#4#11 +89 x#4#12
  +22 x#4#13 +27 x#4#14 +37 x#4#15 +41 x#4#16 +40 x#4#17 +48 x#4#18
  +98 x#4#19 +95 x#4#20 +3 x#4#21 +76 x#4#22 +95 x#4#23 +56 x#4#24
  +78 x#4#25 + x#4#26 +13 x#4#27 +14 x#4#28 +85 x#4#29 +86 x#4#30
  +23 x#4#31 +48 x#4#32 +45 x#4#33 +77 x#4#34 +60 x#4#35 +53 x#4#36
  +61 x#4#37 +18 x#4#38 +70 x#4#39 +18 x#4#40 +66 x#4#41 +41 x#4#42
  +91 x#4#43 +8 x#4#44 +55 x#4#45 +4 x#4#46 +37 x#4#47 +43 x#4#48
  +43 x#4#49 +14 x#4#50 + x#4#51 +14 x#4#52 +98 x#4#53 +96 x#4#54
  +85 x#4#55 +60 x#4#56 +40 x#4#57 +61 x#4#58 +96 x#4#59 +63 x#4#60
  +13 x#4#61 +14 x#4#62 +90 x#4#63 +63 x#4#64 +78 x#4#65 +11 x#4#66
  +20 x#4#67 +18 x#4#68 +5 x#4#69 +70 x#4#70 +58 x#4#71 +68 x#4#72
  +79 x#4#73 +65 x#4#74 +72 x#4#75 +82 x#4#76 +52 x#4#77 +23 x#4#78
  +16 x#4#79 +68 x#4#80 +73 x#4#81 +92 x#4#82 +81 x#4#83 +60 x#4#84
  +18 x#4#85 +34 x#4#86 +97 x#4#87 +29 x#4#88 +31 x#4#89 +97 x#4#90
  +97 x#4#91 +53 x#4#92 +51 x#4#93 +70 x#4#94 +67 x#4#95 +71 x#4#96
  +24 x#4#97 +84 x#4#98 +13 x#4#99 +31 x#4#100 +89 x#5#1 +37 x#5#2
  +14 x#5#3 +48 x#5#4 +15 x#5#5 +93 x#5#6 +22 x#5#7 +36 x#5#8
  +49 x#5#9 +82 x#5#10 +96 x#5#11 +89 x#5#12 +22 x#5#13 +27 x#5#14
  +37 x#5#15 +41 x#5#16 +40 x#5#17 +48 x#5#18 +98 x#5#19 +95 x#5#20
  +3 x#5#21 +76 x#5#22 +95 x#5#23 +56 x#5#24 +78 x#5#25 + x#5#26
  +13 x#5#27 +14 x#5#28 +85 x#5#29 +86 x#5#30 +23 x#5#31 +48 x#5#32
  +45 x#5#33 +77 x#5#34 +60 x#5#35 +53 x#5#36 +61 x#5#37 +18 x#5#38
  +70 x#5#39 +18 x#5#40 +66 x#5#41 +41 x#5#42 +91 x#5#43 +8 x#5#44
  +55 x#5#45 +4 x#5#46 +37 x#5#47 +43 x#5#48 +43 x#5#49 +14 x#5#50
  + x#5#51 +14 x#5#52 +98 x#5#53 +96 x#5#54 +85 x#5#55 +60 x#5#56
  +40 x#5#57 +61 x#5#58 +96 x#5#59 +63 x#5#60 +13 x#5#61 +14 x#5#62
  +90 x#5#63 +63 x#5#64 +78 x#5#65 +11 x#5#66 +20 x#5#67 +18 x#5#68
  +5 x#5#69 +70 x#5#70 +58 x#5#71 +68 x#5#72 +79 x#5#73 +65 x#5#74
  +72 x#5#75 +82 x#5#76 +52 x#5#77 +23 x#5#78 +16 x#5#79 +68 x#5#80
  +73 x#5#81 +92 x#5#82 +81 x#5#83 +60 x#5#84 +18 x#5#85 +34 x#5#86
  +97 x#5#87 +29 x#5#88 +31 x#5#89 +97 x#5#90 +97 x#5#91 +53 x#5#92
  +51 x#5#93 +70 x#5#94 +67 x#5#95 +71 x#5#96 +24 x#5#97 +84 x#5#98
  +13 x#5#99 +31 x#5#100
Subject to
 cap_1:
  +53 x#1#100 +90 x#1#99 +46 x#1#98 +22 x#1#97 +45 x#1#96 +95 x#1#95
  +43 x#1#94 +38 x#1#93 +91 x#1#92 +24 x#1#91 +58 x#1#90 +28 x#1#89
  +61 x#1#88 +50 x#1#87 +56 x#1#86 +24 x#1#85 +69 x#1#84 +30 x#1#83
  +10 x#1#82 +78 x#1#81 +40 x#1#80 +39 x#1#79 +64 x#1#78 +34 x#1#77
  +11 x#1#76 +82 x#1#75 +90 x#1#74 +31 x#1#73 +32 x#1#72 +64 x#1#71
  +18 x#1#70 +69 x#1#69 +18 x#1#68 +38 x#1#67 +19 x#1#66 +53 x#1#65
  +5 x#1#64 +100 x#1#63 +34 x#1#62 +46 x#1#61 +9 x#1#60 +23 x#1#59
  +19 x#1#58 +85 x#1#57 +61 x#1#56 +25 x#1#55 +43 x#1#54 +39 x#1#53
  +56 x#1#52 +8 x#1#51 +4 x#1#50 +27 x#1#49 +24 x#1#48 +7 x#1#47
  +45 x#1#46 +48 x#1#45 +20 x#1#44 +46 x#1#43 +48 x#1#42 +57 x#1#41
  +88 x#1#40 +4 x#1#39 +14 x#1#38 +24 x#1#37 +24 x#1#36 +2 x#1#35
  +63 x#1#34 +25 x#1#33 +46 x#1#32 +8 x#1#31 +80 x#1#30 +22 x#1#29
  +93 x#1#28 +8 x#1#27 +71 x#1#26 +61 x#1#25 +63 x#1#24 +84 x#1#23
  +41 x#1#22 +14 x#1#21 +78 x#1#20 +28 x#1#19 +91 x#1#18 +3 x#1#17
  +92 x#1#16 +93 x#1#15 +98 x#1#14 +55 x#1#13 +20 x#1#12 +33 x#1#11
  +4 x#1#10 +11 x#1#9 +30 x#1#8 +75 x#1#7 +85 x#1#6 +4 x#1#5
  +43 x#1#4 +3 x#1#3 +58 x#1#2 +98 x#1#1 <= 494
 cap_2:
  +7 x#1#100 +64 x#1#99 +24 x#1#98 +43 x#1#97 +41 x#1#96 +96 x#1#95
  +92 x#1#94 +84 x#1#93 +24 x#1#92 +32 x#1#91 +74 x#1#90 +60 x#1#89
  +63 x#1#88 +100 x#1#87 +89 x#1#86 +23 x#1#85 +62 x#1#84 +93 x#1#83
  +83 x#1#82 +76 x#1#81 +16 x#1#80 +22 x#1#79 +14 x#1#78 +51 x#1#77
  +44 x#1#76 +73 x#1#75 +52 x#1#74 +6 x#1#73 +32 x#1#72 +16 x#1#71
  +25 x#1#70 +73 x#1#69 +81 x#1#68 +33 x#1#67 +70 x#1#66 +40 x#1#65
  +59 x#1#64 +31 x#1#63 +75 x#1#62 +95 x#1#61 +72 x#1#60 +51 x#1#59
  +15 x#1#58 +85 x#1#57 +56 x#1#56 +40 x#1#55 +49 x#1#54 +68 x#1#53
  +44 x#1#52 +16 x#1#51 +39 x#1#50 +33 x#1#49 +83 x#1#48 +4 x#1#47
  +66 x#1#46 +64 x#1#45 +31 x#1#44 +31 x#1#43 +66 x#1#42 +68 x#1#41
  +77 x#1#40 +54 x#1#39 +88 x#1#38 +21 x#1#37 +88 x#1#36 +63 x#1#35
  +94 x#1#34 +30 x#1#33 +52 x#1#32 +40 x#1#31 +18 x#1#30 +11 x#1#29
  +31 x#1#28 +92 x#1#27 +58 x#1#26 +95 x#1#25 +42 x#1#24 +14 x#1#23
  +53 x#1#22 +84 x#1#21 + x#1#20 +2 x#1#19 +7 x#1#18 +64 x#1#17
  +61 x#1#16 +33 x#1#15 +69 x#1#14 +71 x#1#13 +66 x#1#12 +88 x#1#11
  +11 x#1#10 +64 x#1#9 +93 x#1#8 +81 x#1#7 +90 x#1#6 +93 x#1#5
  +12 x#1#4 +34 x#1#3 +51 x#1#2 +36 x#1#1 <= 478
 cap_3:
  +53 x#2#100 +90 x#2#99 +46 x#2#98 +22 x#2#97 +45 x#2#96 +95 x#2#95
  +43 x#2#94 +38 x#2#93 +91 x#2#92 +24 x#2#91 +58 x#2#90 +28 x#2#89
  +61 x#2#88 +50 x#2#87 +56 x#2#86 +24 x#2#85 +69 x#2#84 +30 x#2#83
  +10 x#2#82 +78 x#2#81 +40 x#2#80 +39 x#2#79 +64 x#2#78 +34 x#2#77
  +11 x#2#76 +82 x#2#75 +90 x#2#74 +31 x#2#73 +32 x#2#72 +64 x#2#71
  +18 x#2#70 +69 x#2#69 +18 x#2#68 +38 x#2#67 +19 x#2#66 +53 x#2#65
  +5 x#2#64 +100 x#2#63 +34 x#2#62 +46 x#2#61 +9 x#2#60 +23 x#2#59
  +19 x#2#58 +85 x#2#57 +61 x#2#56 +25 x#2#55 +43 x#2#54 +39 x#2#53
  +56 x#2#52 +8 x#2#51 +4 x#2#50 +27 x#2#49 +24 x#2#48 +7 x#2#47
  +45 x#2#46 +48 x#2#45 +20 x#2#44 +46 x#2#43 +48 x#2#42 +57 x#2#41
  +88 x#2#40 +4 x#2#39 +14 x#2#38 +24 x#2#37 +24 x#2#36 +2 x#2#35
  +63 x#2#34 +25 x#2#33 +46 x#2#32 +8 x#2#31 +80 x#2#30 +22 x#2#29
  +93 x#2#28 +8 x#2#27 +71 x#2#26 +61 x#2#25 +63 x#2#24 +84 x#2#23
  +41 x#2#22 +14 x#2#21 +78 x#2#20 +28 x#2#19 +91 x#2#18 +3 x#2#17
  +92 x#2#16 +93 x#2#15 +98 x#2#14 +55 x#2#13 +20 x#2#12 +33 x#2#11
  +4 x#2#10 +11 x#2#9 +30 x#2#8 +75 x#2#7 +85 x#2#6 +4 x#2#5
  +43 x#2#4 +3 x#2#3 +58 x#2#2 +98 x#2#1 <= 436
 cap_4:
  +7 x#2#100 +64 x#2#99 +24 x#2#98 +43 x#2#97 +41 x#2#96 +96 x#2#95
  +92 x#2#94 +84 x#2#93 +24 x#2#92 +32 x#2#91 +74 x#2#90 +60 x#2#89
  +63 x#2#88 +100 x#2#87 +89 x#2#86 +23 x#2#85 +62 x#2#84 +93 x#2#83
  +83 x#2#82 +76 x#2#81 +16 x#2#80 +22 x#2#79 +14 x#2#78 +51 x#2#77
  +44 x#2#76 +73 x#2#75 +52 x#2#74 +6 x#2#73 +32 x#2#72 +16 x#2#71
  +25 x#2#70 +73 x#2#69 +81 x#2#68 +33 x#2#67 +70 x#2#66 +40 x#2#65
  +59 x#2#64 +31 x#2#63 +75 x#2#62 +95 x#2#61 +72 x#2#60 +51 x#2#59
  +15 x#2#58 +85 x#2#57 +56 x#2#56 +40 x#2#55 +49 x#2#54 +68 x#2#53
  +44 x#2#52 +16 x#2#51 +39 x#2#50 +33 x#2#49 +83 x#2#48 +4 x#2#47
  +66 x#2#46 +64 x#2#45 +31 x#2#44 +31 x#2#43 +66 x#2#42 +68 x#2#41
  +77 x#2#40 +54 x#2#39 +88 x#2#38 +21 x#2#37 +88 x#2#36 +63 x#2#35
  +94 x#2#34 +30 x#2#33 +52 x#2#32 +40 x#2#31 +18 x#2#30 +11 x#2#29
  +31 x#2#28 +92 x#2#27 +58 x#2#26 +95 x#2#25 +42 x#2#24 +14 x#2#23
  +53 x#2#22 +84 x#2#21 + x#2#20 +2 x#2#19 +7 x#2#18 +64 x#2#17
  +61 x#2#16 +33 x#2#15 +69 x#2#14 +71 x#2#13 +66 x#2#12 +88 x#2#11
  +11 x#2#10 +64 x#2#9 +93 x#2#8 +81 x#2#7 +90 x#2#6 +93 x#2#5
  +12 x#2#4 +34 x#2#3 +51 x#2#2 +36 x#2#1 <= 549
 cap_5:
  +53 x#3#100 +90 x#3#99 +46 x#3#98 +22 x#3#97 +45 x#3#96 +95 x#3#95
  +43 x#3#94 +38 x#3#93 +91 x#3#92 +24 x#3#91 +58 x#3#90 +28 x#3#89
  +61 x#3#88 +50 x#3#87 +56 x#3#86 +24 x#3#85 +69 x#3#84 +30 x#3#83
  +10 x#3#82 +78 x#3#81 +40 x#3#80 +39 x#3#79 +64 x#3#78 +34 x#3#77
  +11 x#3#76 +82 x#3#75 +90 x#3#74 +31 x#3#73 +32 x#3#72 +64 x#3#71
  +18 x#3#70 +69 x#3#69 +18 x#3#68 +38 x#3#67 +19 x#3#66 +53 x#3#65
  +5 x#3#64 +100 x#3#63 +34 x#3#62 +46 x#3#61 +9 x#3#60 +23 x#3#59
  +19 x#3#58 +85 x#3#57 +61 x#3#56 +25 x#3#55 +43 x#3#54 +39 x#3#53
  +56 x#3#52 +8 x#3#51 +4 x#3#50 +27 x#3#49 +24 x#3#48 +7 x#3#47
  +45 x#3#46 +48 x#3#45 +20 x#3#44 +46 x#3#43 +48 x#3#42 +57 x#3#41
  +88 x#3#40 +4 x#3#39 +14 x#3#38 +24 x#3#37 +24 x#3#36 +2 x#3#35
  +63 x#3#34 +25 x#3#33 +46 x#3#32 +8 x#3#31 +80 x#3#30 +22 x#3#29
  +93 x#3#28 +8 x#3#27 +71 x#3#26 +61 x#3#25 +63 x#3#24 +84 x#3#23
  +41 x#3#22 +14 x#3#21 +78 x#3#20 +28 x#3#19 +91 x#3#18 +3 x#3#17
  +92 x#3#16 +93 x#3#15 +98 x#3#14 +55 x#3#13 +20 x#3#12 +33 x#3#11
  +4 x#3#10 +11 x#3#9 +30 x#3#8 +75 x#3#7 +85 x#3#6 +4 x#3#5
  +43 x#3#4 +3 x#3#3 +58 x#3#2 +98 x#3#1 <= 402
 cap_6:
  +7 x#3#100 +64 x#3#99 +24 x#3#98 +43 x#3#97 +41 x#3#96 +96 x#3#95
  +92 x#3#94 +84 x#3#93 +24 x#3#92 +32 x#3#91 +74 x#3#90 +60 x#3#89
  +63 x#3#88 +100 x#3#87 +89 x#3#86 +23 x#3#85 +62 x#3#84 +93 x#3#83
  +83 x#3#82 +76 x#3#81 +16 x#3#80 +22 x#3#79 +14 x#3#78 +51 x#3#77
  +44 x#3#76 +73 x#3#75 +52 x#3#74 +6 x#3#73 +32 x#3#72 +16 x#3#71
  +25 x#3#70 +73 x#3#69 +81 x#3#68 +33 x#3#67 +70 x#3#66 +40 x#3#65
  +59 x#3#64 +31 x#3#63 +75 x#3#62 +95 x#3#61 +72 x#3#60 +51 x#3#59
  +15 x#3#58 +85 x#3#57 +56 x#3#56 +40 x#3#55 +49 x#3#54 +68 x#3#53
  +44 x#3#52 +16 x#3#51 +39 x#3#50 +33 x#3#49 +83 x#3#48 +4 x#3#47
  +66 x#3#46 +64 x#3#45 +31 x#3#44 +31 x#3#43 +66 x#3#42 +68 x#3#41
  +77 x#3#40 +54 x#3#39 +88 x#3#38 +21 x#3#37 +88 x#3#36 +63 x#3#35
  +94 x#3#34 +30 x#3#33 +52 x#3#32 +40 x#3#31 +18 x#3#30 +11 x#3#29
  +31 x#3#28 +92 x#3#27 +58 x#3#26 +95 x#3#25 +42 x#3#24 +14 x#3#23
  +53 x#3#22 +84 x#3#21 + x#3#20 +2 x#3#19 +7 x#3#18 +64 x#3#17
  +61 x#3#16 +33 x#3#15 +69 x#3#14 +71 x#3#13 +66 x#3#12 +88 x#3#11
  +11 x#3#10 +64 x#3#9 +93 x#3#8 +81 x#3#7 +90 x#3#6 +93 x#3#5
  +12 x#3#4 +34 x#3#3 +51 x#3#2 +36 x#3#1 <= 481
 cap_7:
  +53 x#4#100 +90 x#4#99 +46 x#4#98 +22 x#4#97 +45 x#4#96 +95 x#4#95
  +43 x#4#94 +38 x#4#93 +91 x#4#92 +24 x#4#91 +58 x#4#90 +28 x#4#89
  +61 x#4#88 +50 x#4#87 +56 x#4#86 +24 x#4#85 +69 x#4#84 +30 x#4#83
  +10 x#4#82 +78 x#4#81 +40 x#4#80 +39 x#4#79 +64 x#4#78 +34 x#4#77
  +11 x#4#76 +82 x#4#75 +90 x#4#74 +31 x#4#73 +32 x#4#72 +64 x#4#71
  +18 x#4#70 +69 x#4#69 +18 x#4#68 +38 x#4#67 +19 x#4#66 +53 x#4#65
  +5 x#4#64 +100 x#4#63 +34 x#4#62 +46 x#4#61 +9 x#4#60 +23 x#4#59
  +19 x#4#58 +85 x#4#57 +61 x#4#56 +25 x#4#55 +43 x#4#54 +39 x#4#53
  +56 x#4#52 +8 x#4#51 +4 x#4#50 +27 x#4#49 +24 x#4#48 +7 x#4#47
  +45 x#4#46 +48 x#4#45 +20 x#4#44 +46 x#4#43 +48 x#4#42 +57 x#4#41
  +88 x#4#40 +4 x#4#39 +14 x#4#38 +24 x#4#37 +24 x#4#36 +2 x#4#35
  +63 x#4#34 +25 x#4#33 +46 x#4#32 +8 x#4#31 +80 x#4#30 +22 x#4#29
  +93 x#4#28 +8 x#4#27 +71 x#4#26 +61 x#4#25 +63 x#4#24 +84 x#4#23
  +41 x#4#22 +14 x#4#21 +78 x#4#20 +28 x#4#19 +91 x#4#18 +3 x#4#17
  +92 x#4#16 +93 x#4#15 +98 x#4#14 +55 x#4#13 +20 x#4#12 +33 x#4#11
  +4 x#4#10 +11 x#4#9 +30 x#4#8 +75 x#4#7 +85 x#4#6 +4 x#4#5
  +43 x#4#4 +3 x#4#3 +58 x#4#2 +98 x#4#1 <= 394
 cap_8:
  +7 x#4#100 +64 x#4#99 +24 x#4#98 +43 x#4#97 +41 x#4#96 +96 x#4#95
  +92 x#4#94 +84 x#4#93 +24 x#4#92 +32 x#4#91 +74 x#4#90 +60 x#4#89
  +63 x#4#88 +100 x#4#87 +89 x#4#86 +23 x#4#85 +62 x#4#84 +93 x#4#83
  +83 x#4#82 +76 x#4#81 +16 x#4#80 +22 x#4#79 +14 x#4#78 +51 x#4#77
  +44 x#4#76 +73 x#4#75 +52 x#4#74 +6 x#4#73 +32 x#4#72 +16 x#4#71
  +25 x#4#70 +73 x#4#69 +81 x#4#68 +33 x#4#67 +70 x#4#66 +40 x#4#65
  +59 x#4#64 +31 x#4#63 +75 x#4#62 +95 x#4#61 +72 x#4#60 +51 x#4#59
  +15 x#4#58 +85 x#4#57 +56 x#4#56 +40 x#4#55 +49 x#4#54 +68 x#4#53
  +44 x#4#52 +16 x#4#51 +39 x#4#50 +33 x#4#49 +83 x#4#48 +4 x#4#47
  +66 x#4#46 +64 x#4#45 +31 x#4#44 +31 x#4#43 +66 x#4#42 +68 x#4#41
  +77 x#4#40 +54 x#4#39 +88 x#4#38 +21 x#4#37 +88 x#4#36 +63 x#4#35
  +94 x#4#34 +30 x#4#33 +52 x#4#32 +40 x#4#31 +18 x#4#30 +11 x#4#29
  +31 x#4#28 +92 x#4#27 +58 x#4#26 +95 x#4#25 +42 x#4#24 +14 x#4#23
  +53 x#4#22 +84 x#4#21 + x#4#20 +2 x#4#19 +7 x#4#18 +64 x#4#17
  +61 x#4#16 +33 x#4#15 +69 x#4#14 +71 x#4#13 +66 x#4#12 +88 x#4#11
  +11 x#4#10 +64 x#4#9 +93 x#4#8 +81 x#4#7 +90 x#4#6 +93 x#4#5
  +12 x#4#4 +34 x#4#3 +51 x#4#2 +36 x#4#1 <= 517
 cap_9:
  +53 x#5#100 +90 x#5#99 +46 x#5#98 +22 x#5#97 +45 x#5#96 +95 x#5#95
  +43 x#5#94 +38 x#5#93 +91 x#5#92 +24 x#5#91 +58 x#5#90 +28 x#5#89
  +61 x#5#88 +50 x#5#87 +56 x#5#86 +24 x#5#85 +69 x#5#84 +30 x#5#83
  +10 x#5#82 +78 x#5#81 +40 x#5#80 +39 x#5#79 +64 x#5#78 +34 x#5#77
  +11 x#5#76 +82 x#5#75 +90 x#5#74 +31 x#5#73 +32 x#5#72 +64 x#5#71
  +18 x#5#70 +69 x#5#69 +18 x#5#68 +38 x#5#67 +19 x#5#66 +53 x#5#65
  +5 x#5#64 +100 x#5#63 +34 x#5#62 +46 x#5#61 +9 x#5#60 +23 x#5#59
  +19 x#5#58 +85 x#5#57 +61 x#5#56 +25 x#5#55 +43 x#5#54 +39 x#5#53
  +56 x#5#52 +8 x#5#51 +4 x#5#50 +27 x#5#49 +24 x#5#48 +7 x#5#47
  +45 x#5#46 +48 x#5#45 +20 x#5#44 +46 x#5#43 +48 x#5#42 +57 x#5#41
  +88 x#5#40 +4 x#5#39 +14 x#5#38 +24 x#5#37 +24 x#5#36 +2 x#5#35
  +63 x#5#34 +25 x#5#33 +46 x#5#32 +8 x#5#31 +80 x#5#30 +22 x#5#29
  +93 x#5#28 +8 x#5#27 +71 x#5#26 +61 x#5#25 +63 x#5#24 +84 x#5#23
  +41 x#5#22 +14 x#5#21 +78 x#5#20 +28 x#5#19 +91 x#5#18 +3 x#5#17
  +92 x#5#16 +93 x#5#15 +98 x#5#14 +55 x#5#13 +20 x#5#12 +33 x#5#11
  +4 x#5#10 +11 x#5#9 +30 x#5#8 +75 x#5#7 +85 x#5#6 +4 x#5#5
  +43 x#5#4 +3 x#5#3 +58 x#5#2 +98 x#5#1 <= 1352
 cap_10:
  +7 x#5#100 +64 x#5#99 +24 x#5#98 +43 x#5#97 +41 x#5#96 +96 x#5#95
  +92 x#5#94 +84 x#5#93 +24 x#5#92 +32 x#5#91 +74 x#5#90 +60 x#5#89
  +63 x#5#88 +100 x#5#87 +89 x#5#86 +23 x#5#85 +62 x#5#84 +93 x#5#83
  +83 x#5#82 +76 x#5#81 +16 x#5#80 +22 x#5#79 +14 x#5#78 +51 x#5#77
  +44 x#5#76 +73 x#5#75 +52 x#5#74 +6 x#5#73 +32 x#5#72 +16 x#5#71
  +25 x#5#70 +73 x#5#69 +81 x#5#68 +33 x#5#67 +70 x#5#66 +40 x#5#65
  +59 x#5#64 +31 x#5#63 +75 x#5#62 +95 x#5#61 +72 x#5#60 +51 x#5#59
  +15 x#5#58 +85 x#5#57 +56 x#5#56 +40 x#5#55 +49 x#5#54 +68 x#5#53
  +44 x#5#52 +16 x#5#51 +39 x#5#50 +33 x#5#49 +83 x#5#48 +4 x#5#47
  +66 x#5#46 +64 x#5#45 +31 x#5#44 +31 x#5#43 +66 x#5#42 +68 x#5#41
  +77 x#5#40 +54 x#5#39 +88 x#5#38 +21 x#5#37 +88 x#5#36 +63 x#5#35
  +94 x#5#34 +30 x#5#33 +52 x#5#32 +40 x#5#31 +18 x#5#30 +11 x#5#29
  +31 x#5#28 +92 x#5#27 +58 x#5#26 +95 x#5#25 +42 x#5#24 +14 x#5#23
  +53 x#5#22 +84 x#5#21 + x#5#20 +2 x#5#19 +7 x#5#18 +64 x#5#17
  +61 x#5#16 +33 x#5#15 +69 x#5#14 +71 x#5#13 +66 x#5#12 +88 x#5#11
  +11 x#5#10 +64 x#5#9 +93 x#5#8 +81 x#5#7 +90 x#5#6 +93 x#5#5
  +12 x#5#4 +34 x#5#3 +51 x#5#2 +36 x#5#1 <= 1613
 one_1:
  + x#5#1 + x#4#1 + x#3#1 + x#2#1 + x#1#1 <= 1
 one_2:
  + x#5#2 + x#4#2 + x#3#2 + x#2#2 + x#1#2 <= 1
 one_3:
  + x#5#3 + x#4#3 + x#3#3 + x#2#3 + x#1#3 <= 1
 one_4:
  + x#5#4 + x#4#4 + x#3#4 + x#2#4 + x#1#4 <= 1
 one_5:
  + x#5#5 + x#4#5 + x#3#5 + x#2#5 + x#1#5 <= 1
 one_6:
  + x#5#6 + x#4#6 + x#3#6 + x#2#6 + x#1#6 <= 1
 one_7:
  + x#5#7 + x#4#7 + x#3#7 + x#2#7 + x#1#7 <= 1
 one_8:
  + x#5#8 + x#4#8 + x#3#8 + x#2#8 + x#1#8 <= 1
 one_9:
  + x#5#9 + x#4#9 + x#3#9 + x#2#9 + x#1#9 <= 1
 one_10:
  + x#5#10 + x#4#10 + x#3#10 + x#2#10 + x#1#10 <= 1
 one_11:
  + x#5#11 + x#4#11 + x#3#11 + x#2#11 + x#1#11 <= 1
 one_12:
  + x#5#12 + x#4#12 + x#3#12 + x#2#12 + x#1#12 <= 1
 one_13:
  + x#5#13 + x#4#13 + x#3#13 + x#2#13 + x#1#13 <= 1
 one_14:
  + x#5#14 + x#4#14 + x#3#14 + x#2#14 + x#1#14 <= 1
 one_15:
  + x#5#15 + x#4#15 + x#3#15 + x#2#15 + x#1#15 <= 1
 one_16:
  + x#5#16 + x#4#16 + x#3#16 + x#2#16 + x#1#16 <= 1
 one_17:
  + x#5#17 + x#4#17 + x#3#17 + x#2#17 + x#1#17 <= 1
 one_18:
  + x#5#18 + x#4#18 + x#3#18 + x#2#18 + x#1#18 <= 1
 one_19:
  + x#5#19 + x#4#19 + x#3#19 + x#2#19 + x#1#19 <= 1
 one_20:
  + x#5#20 + x#4#20 + x#3#20 + x#2#20 + x#1#20 <= 1
 one_21:
  + x#5#21 + x#4#21 + x#3#21 + x#2#21 + x#1#21 <= 1
 one_22:
  + x#5#22 + x#4#22 + x#3#22 + x#2#22 + x#1#22 <= 1
 one_23:
  + x#5#23 + x#4#23 + x#3#23 + x#2#23 + x#1#23 <= 1
 one_24:
  + x#5#24 + x#4#24 + x#3#24 + x#2#24 + x#1#24 <= 1
 one_25:
  + x#5#25 + x#4#25 + x#3#25 + x#2#25 + x#1#25 <= 1
 one_26:
  + x#5#26 + x#4#26 + x#3#26 + x#2#26 + x#1#26 <= 1
 one_27:
  + x#5#27 + x#4#27 + x#3#27 + x#2#27 + x#1#27 <= 1
 one_28:
  + x#5#28 + x#4#28 + x#3#28 + x#2#28 + x#1#28 <= 1
 one_29:
  + x#5#29 + x#4#29 + x#3#29 + x#2#29 + x#1#29 <= 1
 one_30:
  + x#5#30 + x#4#30 + x#3#30 + x#2#30 + x#1#30 <= 1
 one_31:
  + x#5#31 + x#4#31 + x#3#31 + x#2#31 + x#1#31 <= 1
 one_32:
  + x#5#32 + x#4#32 + x#3#32 + x#2#32 + x#1#32 <= 1
 one_33:
  + x#5#33 + x#4#33 + x#3#33 + x#2#33 + x#1#33 <= 1
 one_34:
  + x#5#34 + x#4#34 + x#3#34 + x#2#34 + x#1#34 <= 1
 one_35:
  + x#5#35 + x#4#35 + x#3#35 + x#2#35 + x#1#35 <= 1
 one_36:
  + x#5#36 + x#4#36 + x#3#36 + x#2#36 + x#1#36 <= 1
 one_37:
  + x#5#37 + x#4#37 + x#3#37 + x#2#37 + x#1#37 <= 1
 one_38:
  + x#5#38 + x#4#38 + x#3#38 + x#2#38 + x#1#38 <= 1
 one_39:
  + x#5#39 + x#4#39 + x#3#39 + x#2#39 + x#1#39 <= 1
 one_40:
  + x#5#40 + x#4#40 + x#3#40 + x#2#40 + x#1#40 <= 1
 one_41:
  + x#5#41 + x#4#41 + x#3#41 + x#2#41 + x#1#41 <= 1
 one_42:
  + x#5#42 + x#4#42 + x#3#42 + x#2#42 + x#1#42 <= 1
 one_43:
  + x#5#43 + x#4#43 + x#3#43 + x#2#43 + x#1#43 <= 1
 one_44:
  + x#5#44 + x#4#44 + x#3#44 + x#2#44 + x#1#44 <= 1
 one_45:
  + x#5#45 + x#4#45 + x#3#45 + x#2#45 + x#1#45 <= 1
 one_46:
  + x#5#46 + x#4#46 + x#3#46 + x#2#46 + x#1#46 <= 1
 one_47:
  + x#5#47 + x#4#47 + x#3#47 + x#2#47 + x#1#47 <= 1
 one_48:
  + x#5#48 + x#4#48 + x#3#48 + x#2#48 + x#1#48 <= 1
 one_49:
  + x#5#49 + x#4#49 + x#3#49 + x#2#49 + x#1#49 <= 1
 one_50:
  + x#5#50 + x#4#50 + x#3#50 + x#2#50 + x#1#50 <= 1
 one_51:
  + x#5#51 + x#4#51 + x#3#51 + x#2#51 + x#1#51 <= 1
 one_52:
  + x#5#52 + x#4#52 + x#3#52 + x#2#52 + x#1#52 <= 1
 one_53:
  + x#5#53 + x#4#53 + x#3#53 + x#2#53 + x#1#53 <= 1
 one_54:
  + x#5#54 + x#4#54 + x#3#54 + x#2#54 + x#1#54 <= 1
 one_55:
  + x#5#55 + x#4#55 + x#3#55 + x#2#55 + x#1#55 <= 1
 one_56:
  + x#5#56 + x#4#56 + x#3#56 + x#2#56 + x#1#56 <= 1
 one_57:
  + x#5#57 + x#4#57 + x#3#57 + x#2#57 + x#1#57 <= 1
 one_58:
  + x#5#58 + x#4#58 + x#3#58 + x#2#58 + x#1#58 <= 1
 one_59:
  + x#5#59 + x#4#59 + x#3#59 + x#2#59 + x#1#59 <= 1
 one_60:
  + x#5#60 + x#4#60 + x#3#60 + x#2#60 + x#1#60 <= 1
 one_61:
  + x#5#61 + x#4#61 + x#3#61 + x#2#61 + x#1#61 <= 1
 one_62:
  + x#5#62 + x#4#62 + x#3#62 + x#2#62 + x#1#62 <= 1
 one_63:
  + x#5#63 + x#4#63 + x#3#63 + x#2#63 + x#1#63 <= 1
 one_64:
  + x#5#64 + x#4#64 + x#3#64 + x#2#64 + x#1#64 <= 1
 one_65:
  + x#5#65 + x#4#65 + x#3#65 + x#2#65 + x#1#65 <= 1
 one_66:
  + x#5#66 + x#4#66 + x#3#66 + x#2#66 + x#1#66 <= 1
 one_67:
  + x#5#67 + x#4#67 + x#3#67 + x#2#67 + x#1#67 <= 1
 one_68:
  + x#5#68 + x#4#68 + x#3#68 + x#2#68 + x#1#68 <= 1
 one_69:
  + x#5#69 + x#4#69 + x#3#69 + x#2#69 + x#1#69 <= 1
 one_70:
  + x#5#70 + x#4#70 + x#3#70 + x#2#70 + x#1#70 <= 1
 one_71:
  + x#5#71 + x#4#71 + x#3#71 + x#2#71 + x#1#71 <= 1
 one_72:
  + x#5#72 + x#4#72 + x#3#72 + x#2#72 + x#1#72 <= 1
 one_73:
  + x#5#73 + x#4#73 + x#3#73 + x#2#73 + x#1#73 <= 1
 one_74:
  + x#5#74 + x#4#74 + x#3#74 + x#2#74 + x#1#74 <= 1
 one_75:
  + x#5#75 + x#4#75 + x#3#75 + x#2#75 + x#1#75 <= 1
 one_76:
  + x#5#76 + x#4#76 + x#3#76 + x#2#76 + x#1#76 <= 1
 one_77:
  + x#5#77 + x#4#77 + x#3#77 + x#2#77 + x#1#77 <= 1
 one_78:
  + x#5#78 + x#4#78 + x#3#78 + x#2#78 + x#1#78 <= 1
 one_79:
  + x#5#79 + x#4#79 + x#3#79 + x#2#79 + x#1#79 <= 1
 one_80:
  + x#5#80 + x#4#80 + x#3#80 + x#2#80 + x#1#80 <= 1
 one_81:
  + x#5#81 + x#4#81 + x#3#81 + x#2#81 + x#1#81 <= 1
 one_82:
  + x#5#82 + x#4#82 + x#3#82 + x#2#82 + x#1#82 <= 1
 one_83:
  + x#5#83 + x#4#83 + x#3#83 + x#2#83 + x#1#83 <= 1
 one_84:
  + x#5#84 + x#4#84 + x#3#84 + x#2#84 + x#1#84 <= 1
 one_85:
  + x#5#85 + x#4#85 + x#3#85 + x#2#85 + x#1#85 <= 1
 one_86:
  + x#5#86 + x#4#86 + x#3#86 + x#2#86 + x#1#86 <= 1
 one_87:
  + x#5#87 + x#4#87 + x#3#87 + x#2#87 + x#1#87 <= 1
 one_88:
  + x#5#88 + x#4#88 + x#3#88 + x#2#88 + x#1#88 <= 1
 one_89:
  + x#5#89 + x#4#89 + x#3#89 + x#2#89 + x#1#89 <= 1
 one_90:
  + x#5#90 + x#4#90 + x#3#90 + x#2#90 + x#1#90 <= 1
 one_91:
  + x#5#91 + x#4#91 + x#3#91 + x#2#91 + x#1#91 <= 1
 one_92:
  + x#5#92 + x#4#92 + x#3#92 + x#2#92 + x#1#92 <= 1
 one_93:
  + x#5#93 + x#4#93 + x#3#93 + x#2#93 + x#1#93 <= 1
 one_94:
  + x#5#94 + x#4#94 + x#3#94 + x#2#94 + x#1#94 <= 1
 one_95:
  + x#5#95 + x#4#95 + x#3#95 + x#2#95 + x#1#95 <= 1
 one_96:
  + x#5#96 + x#4#96 + x#3#96 + x#2#96 + x#1#96 <= 1
 one_97:
  + x#5#97 + x#4#97 + x#3#97 + x#2#97 + x#1#97 <= 1
 one_98:
  + x#5#98 + x#4#98 + x#3#98 + x#2#98 + x#1#98 <= 1
 one_99:
  + x#5#99 + x#4#99 + x#3#99 + x#2#99 + x#1#99 <= 1
 one_100:
  + x#5#100 + x#4#100 + x#3#100 + x#2#100 + x#1#100 <= 1
Bounds
 0 <= x#1#1 <= 1
 0 <= x#1#2 <= 1
 0 <= x#1#3 <= 1
 0 <= x#1#4 <= 1
 0 <= x#1#5 <= 1
 0 <= x#1#6 <= 1
 0 <= x#1#7 <= 1
 0 <= x#1#8 <= 1
 0 <= x#1#9 <= 1
 0 <= x#1#10 <= 1
 0 <= x#1#11 <= 1
 0 <= x#1#12 <= 1
 0 <= x#1#13 <= 1
 0 <= x#1#14 <= 1
 0 <= x#1#15 <= 1
 0 <= x#1#16 <= 1
 0 <= x#1#17 <= 1
 0 <= x#1#18 <= 1
 0 <= x#1#19 <= 1
 0 <= x#1#20 <= 1
 0 <= x#1#21 <= 1
 0 <= x#1#22 <= 1
 0 <= x#1#23 <= 1
 0 <= x#1#24 <= 1
 0 <= x#1#25 <= 1
 0 <= x#1#26 <= 1
 0 <= x#1#27 <= 1
 0 <= x#1#28 <= 1
 0 <= x#1#29 <= 1
 0 <= x#1#30 <= 1
 0 <= x#1#31 <= 1
 0 <= x#1#32 <= 1
 0 <= x#1#33 <= 1
 0 <= x#1#34 <= 1
 0 <= x#1#35 <= 1
 0 <= x#1#36 <= 1
 0 <= x#1#37 <= 1
 0 <= x#1#38 <= 1
 0 <= x#1#39 <= 1
 0 <= x#1#40 <= 1
 0 <= x#1#41 <= 1
 0 <= x#1#42 <= 1
 0 <= x#1#43 <= 1
 0 <= x#1#44 <= 1
 0 <= x#1#45 <= 1
 0 <= x#1#46 <= 1
 0 <= x#1#47 <= 1
 0 <= x#1#48 <= 1
 0 <= x#1#49 <= 1
 0 <= x#1#50 <= 1
 0 <= x#1#51 <= 1
 0 <= x#1#52 <= 1
 0 <= x#1#53 <= 1
 0 <= x#1#54 <= 1
 0 <= x#1#55 <= 1
 0 <= x#1#56 <= 1
 0 <= x#1#57 <= 1
 0 <= x#1#58 <= 1
 0 <= x#1#59 <= 1
 0 <= x#1#60 <= 1
 0 <= x#1#61 <= 1
 0 <= x#1#62 <= 1
 0 <= x#1#63 <= 1
 0 <= x#1#64 <= 1
 0 <= x#1#65 <= 1
 0 <= x#1#66 <= 1
 0 <= x#1#67 <= 1
 0 <= x#1#68 <= 1
 0 <= x#1#69 <= 1
 0 <= x#1#70 <= 1
 0 <= x#1#71 <= 1
 0 <= x#1#72 <= 1
 0 <= x#1#73 <= 1
 0 <= x#1#74 <= 1
 0 <= x#1#75 <= 1
 0 <= x#1#76 <= 1
 0 <= x#1#77 <= 1
 0 <= x#1#78 <= 1
 0 <= x#1#79 <= 1
 0 <= x#1#80 <= 1
 0 <= x#1#81 <= 1
 0 <= x#1#82 <= 1
 0 <= x#1#83 <= 1
 0 <= x#1#84 <= 1
 0 <= x#1#85 <= 1
 0 <= x#1#86 <= 1
 0 <= x#1#87 <= 1
 0 <= x#1#88 <= 1
 0 <= x#1#89 <= 1
 0 <= x#1#90 <= 1
 0 <= x#1#91 <= 1
 0 <= x#1#92 <= 1
 0 <= x#1#93 <= 1
 0 <= x#1#94 <= 1
 0 <= x#1#95 <= 1
 0 <= x#1#96 <= 1
 0 <= x#1#97 <= 1
 0 <= x#1#98 <= 1
 0 <= x#1#99 <= 1
 0 <= x#1#100 <= 1
 0 <= x#2#1 <= 1
 0 <= x#2#2 <= 1
 0 <= x#2#3 <= 1
 0 <= x#2#4 <= 1
 0 <= x#2#5 <= 1
 0 <= x#2#6 <= 1
 0 <= x#2#7 <= 1
 0 <= x#2#8 <= 1
 0 <= x#2#9 <= 1
 0 <= x#2#10 <= 1
 0 <= x#2#11 <= 1
 0 <= x#2#12 <= 1
 0 <= x#2#13 <= 1
 0 <= x#2#14 <= 1
 0 <= x#2#15 <= 1
 0 <= x#2#16 <= 1
 0 <= x#2#17 <= 1
 0 <= x#2#18 <= 1
 0 <= x#2#19 <= 1
 0 <= x#2#20 <= 1
 0 <= x#2#21 <= 1
 0 <= x#2#22 <= 1
 0 <= x#2#23 <= 1
 0 <= x#2#24 <= 1
 0 <= x#2#25 <= 1
 0 <= x#2#26 <= 1
 0 <= x#2#27 <= 1
 0 <= x#2#28 <= 1
 0 <= x#2#29 <= 1
 0 <= x#2#30 <= 1
 0 <= x#2#31 <= 1
 0 <= x#2#32 <= 1
 0 <= x#2#33 <= 1
 0 <= x#2#34 <= 1
 0 <= x#2#35 <= 1
 0 <= x#2#36 <= 1
 0 <= x#2#37 <= 1
 0 <= x#2#38 <= 1
 0 <= x#2#39 <= 1
 0 <= x#2#40 <= 1
 0 <= x#2#41 <= 1
 0 <= x#2#42 <= 1
 0 <= x#2#43 <= 1
 0 <= x#2#44 <= 1
 0 <= x#2#45 <= 1
 0 <= x#2#46 <= 1
 0 <= x#2#47 <= 1
 0 <= x#2#48 <= 1
 0 <= x#2#49 <= 1
 0 <= x#2#50 <= 1
 0 <= x#2#51 <= 1
 0 <= x#2#52 <= 1
 0 <= x#2#53 <= 1
 0 <= x#2#54 <= 1
 0 <= x#2#55 <= 1
 0 <= x#2#56 <= 1
 0 <= x#2#57 <= 1
 0 <= x#2#58 <= 1
 0 <= x#2#59 <= 1
 0 <= x#2#60 <= 1
 0 <= x#2#61 <= 1
 0 <= x#2#62 <= 1
 0 <= x#2#63 <= 1
 0 <= x#2#64 <= 1
 0 <= x#2#65 <= 1
 0 <= x#2#66 <= 1
 0 <= x#2#67 <= 1
 0 <= x#2#68 <= 1
 0 <= x#2#69 <= 1
 0 <= x#2#70 <= 1
 0 <= x#2#71 <= 1
 0 <= x#2#72 <= 1
 0 <= x#2#73 <= 1
 0 <= x#2#74 <= 1
 0 <= x#2#75 <= 1
 0 <= x#2#76 <= 1
 0 <= x#2#77 <= 1
 0 <= x#2#78 <= 1
 0 <= x#2#79 <= 1
 0 <= x#2#80 <= 1
 0 <= x#2#81 <= 1
 0 <= x#2#82 <= 1
 0 <= x#2#83 <= 1
 0 <= x#2#84 <= 1
 0 <= x#2#85 <= 1
 0 <= x#2#86 <= 1
 0 <= x#2#87 <= 1
 0 <= x#2#88 <= 1
 0 <= x#2#89 <= 1
 0 <= x#2#90 <= 1
 0 <= x#2#91 <= 1
 0 <= x#2#92 <= 1
 0 <= x#2#93 <= 1
 0 <= x#2#94 <= 1
 0 <= x#2#95 <= 1
 0 <= x#2#96 <= 1
 0 <= x#2#97 <= 1
 0 <= x#2#98 <= 1
 0 <= x#2#99 <= 1
 0 <= x#2#100 <= 1
 0 <= x#3#1 <= 1
 0 <= x#3#2 <= 1
 0 <= x#3#3 <= 1
 0 <= x#3#4 <= 1
 0 <= x#3#5 <= 1
 0 <= x#3#6 <= 1
 0 <= x#3#7 <= 1
 0 <= x#3#8 <= 1
 0 <= x#3#9 <= 1
 0 <= x#3#10 <= 1
 0 <= x#3#11 <= 1
 0 <= x#3#12 <= 1
 0 <= x#3#13 <= 1
 0 <= x#3#14 <= 1
 0 <= x#3#15 <= 1
 0 <= x#3#16 <= 1
 0 <= x#3#17 <= 1
 0 <= x#3#18 <= 1
 0 <= x#3#19 <= 1
 0 <= x#3#20 <= 1
 0 <= x#3#21 <= 1
 0 <= x#3#22 <= 1
 0 <= x#3#23 <= 1
 0 <= x#3#24 <= 1
 0 <= x#3#25 <= 1
 0 <= x#3#26 <= 1
 0 <= x#3#27 <= 1
 0 <= x#3#28 <= 1
 0 <= x#3#29 <= 1
 0 <= x#3#30 <= 1
 0 <= x#3#31 <= 1
 0 <= x#3#32 <= 1
 0 <= x#3#33 <= 1
 0 <= x#3#34 <= 1
 0 <= x#3#35 <= 1
 0 <= x#3#36 <= 1
 0 <= x#3#37 <= 1
 0 <= x#3#38 <= 1
 0 <= x#3#39 <= 1
 0 <= x#3#40 <= 1
 0 <= x#3#41 <= 1
 0 <= x#3#42 <= 1
 0 <= x#3#43 <= 1
 0 <= x#3#44 <= 1
 0 <= x#3#45 <= 1
 0 <= x#3#46 <= 1
 0 <= x#3#47 <= 1
 0 <= x#3#48 <= 1
 0 <= x#3#49 <= 1
 0 <= x#3#50 <= 1
 0 <= x#3#51 <= 1
 0 <= x#3#52 <= 1
 0 <= x#3#53 <= 1
 0 <= x#3#54 <= 1
 0 <= x#3#55 <= 1
 0 <= x#3#56 <= 1
 0 <= x#3#57 <= 1
 0 <= x#3#58 <= 1
 0 <= x#3#59 <= 1
 0 <= x#3#60 <= 1
 0 <= x#3#61 <= 1
 0 <= x#3#62 <= 1
 0 <= x#3#63 <= 1
 0 <= x#3#64 <= 1
 0 <= x#3#65 <= 1
 0 <= x#3#66 <= 1
 0 <= x#3#67 <= 1
 0 <= x#3#68 <= 1
 0 <= x#3#69 <= 1
 0 <= x#3#70 <= 1
 0 <= x#3#71 <= 1
 0 <= x#3#72 <= 1
 0 <= x#3#73 <= 1
 0 <= x#3#74 <= 1
 0 <= x#3#75 <= 1
 0 <= x#3#76 <= 1
 0 <= x#3#77 <= 1
 0 <= x#3#78 <= 1
 0 <= x#3#79 <= 1
 0 <= x#3#80 <= 1
 0 <= x#3#81 <= 1
 0 <= x#3#82 <= 1
 0 <= x#3#83 <= 1
 0 <= x#3#84 <= 1
 0 <= x#3#85 <= 1
 0 <= x#3#86 <= 1
 0 <= x#3#87 <= 1
 0 <= x#3#88 <= 1
 0 <= x#3#89 <= 1
 0 <= x#3#90 <= 1
 0 <= x#3#91 <= 1
 0 <= x#3#92 <= 1
 0 <= x#3#93 <= 1
 0 <= x#3#94 <= 1
 0 <= x#3#95 <= 1
 0 <= x#3#96 <= 1
 0 <= x#3#97 <= 1
 0 <= x#3#98 <= 1
 0 <= x#3#99 <= 1
 0 <= x#3#100 <= 1
 0 <= x#4#1 <= 1
 0 <= x#4#2 <= 1
 0 <= x#4#3 <= 1
 0 <= x#4#4 <= 1
 0 <= x#4#5 <= 1
 0 <= x#4#6 <= 1
 0 <= x#4#7 <= 1
 0 <= x#4#8 <= 1
 0 <= x#4#9 <= 1
 0 <= x#4#10 <= 1
 0 <= x#4#11 <= 1
 0 <= x#4#12 <= 1
 0 <= x#4#13 <= 1
 0 <= x#4#14 <= 1
 0 <= x#4#15 <= 1
 0 <= x#4#16 <= 1
 0 <= x#4#17 <= 1
 0 <= x#4#18 <= 1
 0 <= x#4#19 <= 1
 0 <= x#4#20 <= 1
 0 <= x#4#21 <= 1
 0 <= x#4#22 <= 1
 0 <= x#4#23 <= 1
 0 <= x#4#24 <= 1
 0 <= x#4#25 <= 1
 0 <= x#4#26 <= 1
 0 <= x#4#27 <= 1
 0 <= x#4#28 <= 1
 0 <= x#4#29 <= 1
 0 <= x#4#30 <= 1
 0 <= x#4#31 <= 1
 0 <= x#4#32 <= 1
 0 <= x#4#33 <= 1
 0 <= x#4#34 <= 1
 0 <= x#4#35 <= 1
 0 <= x#4#36 <= 1
 0 <= x#4#37 <= 1
 0 <= x#4#38 <= 1
 0 <= x#4#39 <= 1
 0 <= x#4#40 <= 1
 0 <= x#4#41 <= 1
 0 <= x#4#42 <= 1
 0 <= x#4#43 <= 1
 0 <= x#4#44 <= 1
 0 <= x#4#45 <= 1
 0 <= x#4#46 <= 1
 0 <= x#4#47 <= 1
 0 <= x#4#48 <= 1
 0 <= x#4#49 <= 1
 0 <= x#4#50 <= 1
 0 <= x#4#51 <= 1
 0 <= x#4#52 <= 1
 0 <= x#4#53 <= 1
 0 <= x#4#54 <= 1
 0 <= x#4#55 <= 1
 0 <= x#4#56 <= 1
 0 <= x#4#57 <= 1
 0 <= x#4#58 <= 1
 0 <= x#4#59 <= 1
 0 <= x#4#60 <= 1
 0 <= x#4#61 <= 1
 0 <= x#4#62 <= 1
 0 <= x#4#63 <= 1
 0 <= x#4#64 <= 1
 0 <= x#4#65 <= 1
 0 <= x#4#66 <= 1
 0 <= x#4#67 <= 1
 0 <= x#4#68 <= 1
 0 <= x#4#69 <= 1
 0 <= x#4#70 <= 1
 0 <= x#4#71 <= 1
 0 <= x#4#72 <= 1
 0 <= x#4#73 <= 1
 0 <= x#4#74 <= 1
 0 <= x#4#75 <= 1
 0 <= x#4#76 <= 1
 0 <= x#4#77 <= 1
 0 <= x#4#78 <= 1
 0 <= x#4#79 <= 1
 0 <= x#4#80 <= 1
 0 <= x#4#81 <= 1
 0 <= x#4#82 <= 1
 0 <= x#4#83 <= 1
 0 <= x#4#84 <= 1
 0 <= x#4#85 <= 1
 0 <= x#4#86 <= 1
 0 <= x#4#87 <= 1
 0 <= x#4#88 <= 1
 0 <= x#4#89 <= 1
 0 <= x#4#90 <= 1
 0 <= x#4#91 <= 1
 0 <= x#4#92 <= 1
 0 <= x#4#93 <= 1
 0 <= x#4#94 <= 1
 0 <= x#4#95 <= 1
 0 <= x#4#96 <= 1
 0 <= x#4#97 <= 1
 0 <= x#4#98 <= 1
 0 <= x#4#99 <= 1
 0 <= x#4#100 <= 1
 0 <= x#5#1 <= 1
 0 <= x#5#2 <= 1
 0 <= x#5#3 <= 1
 0 <= x#5#4 <= 1
 0 <= x#5#5 <= 1
 0 <= x#5#6 <= 1
 0 <= x#5#7 <= 1
 0 <= x#5#8 <= 1
 0 <= x#5#9 <= 1
 0 <= x#5#10 <= 1
 0 <= x#5#11 <= 1
 0 <= x#5#12 <= 1
 0 <= x#5#13 <= 1
 0 <= x#5#14 <= 1
 0 <= x#5#15 <= 1
 0 <= x#5#16 <= 1
 0 <= x#5#17 <= 1
 0 <= x#5#18 <= 1
 0 <= x#5#19 <= 1
 0 <= x#5#20 <= 1
 0 <= x#5#21 <= 1
 0 <= x#5#22 <= 1
 0 <= x#5#23 <= 1
 0 <= x#5#24 <= 1
 0 <= x#5#25 <= 1
 0 <= x#5#26 <= 1
 0 <= x#5#27 <= 1
 0 <= x#5#28 <= 1
 0 <= x#5#29 <= 1
 0 <= x#5#30 <= 1
 0 <= x#5#31 <= 1
 0 <= x#5#32 <= 1
 0 <= x#5#33 <= 1
 0 <= x#5#34 <= 1
 0 <= x#5#35 <= 1
 0 <= x#5#36 <= 1
 0 <= x#5#37 <= 1
 0 <= x#5#38 <= 1
 0 <= x#5#39 <= 1
 0 <= x#5#40 <= 1
 0 <= x#5#41 <= 1
 0 <= x#5#42 <= 1
 0 <= x#5#43 <= 1
 0 <= x#5#44 <= 1
 0 <= x#5#45 <= 1
 0 <= x#5#46 <= 1
 0 <= x#5#47 <= 1
 0 <= x#5#48 <= 1
 0 <= x#5#49 <= 1
 0 <= x#5#50 <= 1
 0 <= x#5#51 <= 1
 0 <= x#5#52 <= 1
 0 <= x#5#53 <= 1
 0 <= x#5#54 <= 1
 0 <= x#5#55 <= 1
 0 <= x#5#56 <= 1
 0 <= x#5#57 <= 1
 0 <= x#5#58 <= 1
 0 <= x#5#59 <= 1
 0 <= x#5#60 <= 1
 0 <= x#5#61 <= 1
 0 <= x#5#62 <= 1
 0 <= x#5#63 <= 1
 0 <= x#5#64 <= 1
 0 <= x#5#65 <= 1
 0 <= x#5#66 <= 1
 0 <= x#5#67 <= 1
 0 <= x#5#68 <= 1
 0 <= x#5#69 <= 1
 0 <= x#5#70 <= 1
 0 <= x#5#71 <= 1
 0 <= x#5#72 <= 1
 0 <= x#5#73 <= 1
 0 <= x#5#74 <= 1
 0 <= x#5#75 <= 1
 0 <= x#5#76 <= 1
 0 <= x#5#77 <= 1
 0 <= x#5#78 <= 1
 0 <= x#5#79 <= 1
 0 <= x#5#80 <= 1
 0 <= x#5#81 <= 1
 0 <= x#5#82 <= 1
 0 <= x#5#83 <= 1
 0 <= x#5#84 <= 1
 0 <= x#5#85 <= 1
 0 <= x#5#86 <= 1
 0 <= x#5#87 <= 1
 0 <= x#5#88 <= 1
 0 <= x#5#89 <= 1
 0 <= x#5#90 <= 1
 0 <= x#5#91 <= 1
 0 <= x#5#92 <= 1
 0 <= x#5#93 <= 1
 0 <= x#5#94 <= 1
 0 <= x#5#95 <= 1
 0 <= x#5#96 <= 1
 0 <= x#5#97 <= 1
 0 <= x#5#98 <= 1
 0 <= x#5#99 <= 1
 0 <= x#5#100 <= 1
General
 x#1#1
 x#1#2
 x#1#3
 x#1#4
 x#1#5
 x#1#6
 x#1#7
 x#1#8
 x#1#9
 x#1#10
 x#1#11
 x#1#12
 x#1#13
 x#1#14
 x#1#15
 x#1#16
 x#1#17
 x#1#18
 x#1#19
 x#1#20
 x#1#21
 x#1#22
 x#1#23
 x#1#24
 x#1#25
 x#1#26
 x#1#27
 x#1#28
 x#1#29
 x#1#30
 x#1#31
 x#1#32
 x#1#33
 x#1#34
 x#1#35
 x#1#36
 x#1#37
 x#1#38
 x#1#39
 x#1#40
 x#1#41
 x#1#42
 x#1#43
 x#1#44
 x#1#45
 x#1#46
 x#1#47
 x#1#48
 x#1#49
 x#1#50
 x#1#51
 x#1#52
 x#1#53
 x#1#54
 x#1#55
 x#1#56
 x#1#57
 x#1#58
 x#1#59
 x#1#60
 x#1#61
 x#1#62
 x#1#63
 x#1#64
 x#1#65
 x#1#66
 x#1#67
 x#1#68
 x#1#69
 x#1#70
 x#1#71
 x#1#72
 x#1#73
 x#1#74
 x#1#75
 x#1#76
 x#1#77
 x#1#78
 x#1#79
 x#1#80
 x#1#81
 x#1#82
 x#1#83
 x#1#84
 x#1#85
 x#1#86
 x#1#87
 x#1#88
 x#1#89
 x#1#90
 x#1#91
 x#1#92
 x#1#93
 x#1#94
 x#1#95
 x#1#96
 x#1#97
 x#1#98
 x#1#99
 x#1#100
 x#2#1
 x#2#2
 x#2#3
 x#2#4
 x#2#5
 x#2#6
 x#2#7
 x#2#8
 x#2#9
 x#2#10
 x#2#11
 x#2#12
 x#2#13
 x#2#14
 x#2#15
 x#2#16
 x#2#17
 x#2#18
 x#2#19
 x#2#20
 x#2#21
 x#2#22
 x#2#23
 x#2#24
 x#2#25
 x#2#26
 x#2#27
 x#2#28
 x#2#29
 x#2#30
 x#2#31
 x#2#32
 x#2#33
 x#2#34
 x#2#35
 x#2#36
 x#2#37
 x#2#38
 x#2#39
 x#2#40
 x#2#41
 x#2#42
 x#2#43
 x#2#44
 x#2#45
 x#2#46
 x#2#47
 x#2#48
 x#2#49
 x#2#50
 x#2#51
 x#2#52
 x#2#53
 x#2#54
 x#2#55
 x#2#56
 x#2#57
 x#2#58
 x#2#59
 x#2#60
 x#2#61
 x#2#62
 x#2#63
 x#2#64
 x#2#65
 x#2#66
 x#2#67
 x#2#68
 x#2#69
 x#2#70
 x#2#71
 x#2#72
 x#2#73
 x#2#74
 x#2#75
 x#2#76
 x#2#77
 x#2#78
 x#2#79
 x#2#80
 x#2#81
 x#2#82
 x#2#83
 x#2#84
 x#2#85
 x#2#86
 x#2#87
 x#2#88
 x#2#89
 x#2#90
 x#2#91
 x#2#92
 x#2#93
 x#2#94
 x#2#95
 x#2#96
 x#2#97
 x#2#98
 x#2#99
 x#2#100
 x#3#1
 x#3#2
 x#3#3
 x#3#4
 x#3#5
 x#3#6
 x#3#7
 x#3#8
 x#3#9
 x#3#10
 x#3#11
 x#3#12
 x#3#13
 x#3#14
 x#3#15
 x#3#16
 x#3#17
 x#3#18
 x#3#19
 x#3#20
 x#3#21
 x#3#22
 x#3#23
 x#3#24
 x#3#25
 x#3#26
 x#3#27
 x#3#28
 x#3#29
 x#3#30
 x#3#31
 x#3#32
 x#3#33
 x#3#34
 x#3#35
 x#3#36
 x#3#37
 x#3#38
 x#3#39
 x#3#40
 x#3#41
 x#3#42
 x#3#43
 x#3#44
 x#3#45
 x#3#46
 x#3#47
 x#3#48
 x#3#49
 x#3#50
 x#3#51
 x#3#52
 x#3#53
 x#3#54
 x#3#55
 x#3#56
 x#3#57
 x#3#58
 x#3#59
 x#3#60
 x#3#61
 x#3#62
 x#3#63
 x#3#64
 x#3#65
 x#3#66
 x#3#67
 x#3#68
 x#3#69
 x#3#70
 x#3#71
 x#3#72
 x#3#73
 x#3#74
 x#3#75
 x#3#76
 x#3#77
 x#3#78
 x#3#79
 x#3#80
 x#3#81
 x#3#82
 x#3#83
 x#3#84
 x#3#85
 x#3#86
 x#3#87
 x#3#88
 x#3#89
 x#3#90
 x#3#91
 x#3#92
 x#3#93
 x#3#94
 x#3#95
 x#3#96
 x#3#97
 x#3#98
 x#3#99
 x#3#100
 x#4#1
 x#4#2
 x#4#3
 x#4#4
 x#4#5
 x#4#6
 x#4#7
 x#4#8
 x#4#9
 x#4#10
 x#4#11
 x#4#12
 x#4#13
 x#4#14
 x#4#15
 x#4#16
 x#4#17
 x#4#18
 x#4#19
 x#4#20
 x#4#21
 x#4#22
 x#4#23
 x#4#24
 x#4#25
 x#4#26
 x#4#27
 x#4#28
 x#4#29
 x#4#30
 x#4#31
 x#4#32
 x#4#33
 x#4#34
 x#4#35
 x#4#36
 x#4#37
 x#4#38
 x#4#39
 x#4#40
 x#4#41
 x#4#42
 x#4#43
 x#4#44
 x#4#45
 x#4#46
 x#4#47
 x#4#48
 x#4#49
 x#4#50
 x#4#51
 x#4#52
 x#4#53
 x#4#54
 x#4#55
 x#4#56
 x#4#57
 x#4#58
 x#4#59
 x#4#60
 x#4#61
 x#4#62
 x#4#63
 x#4#64
 x#4#65
 x#4#66
 x#4#67
 x#4#68
 x#4#69
 x#4#70
 x#4#71
 x#4#72
 x#4#73
 x#4#74
 x#4#75
 x#4#76
 x#4#77
 x#4#78
 x#4#79
 x#4#80
 x#4#81
 x#4#82
 x#4#83
 x#4#84
 x#4#85
 x#4#86
 x#4#87
 x#4#88
 x#4#89
 x#4#90
 x#4#91
 x#4#92
 x#4#93
 x#4#94
 x#4#95
 x#4#96
 x#4#97
 x#4#98
 x#4#99
 x#4#100
 x#5#1
 x#5#2
 x#5#3
 x#5#4
 x#5#5
 x#5#6
 x#5#7
 x#5#8
 x#5#9
 x#5#10
 x#5#11
 x#5#12
 x#5#13
 x#5#14
 x#5#15
 x#5#16
 x#5#17
 x#5#18
 x#5#19
 x#5#20
 x#5#21
 x#5#22
 x#5#23
 x#5#24
 x#5#25
 x#5#26
 x#5#27
 x#5#28
 x#5#29
 x#5#30
 x#5#31
 x#5#32
 x#5#33
 x#5#34
 x#5#35
 x#5#36
 x#5#37
 x#5#38
 x#5#39
 x#5#40
 x#5#41
 x#5#42
 x#5#43
 x#5#44
 x#5#45
 x#5#46
 x#5#47
 x#5#48
 x#5#49
 x#5#50
 x#5#51
 x#5#52
 x#5#53
 x#5#54
 x#5#55
 x#5#56
 x#5#57
 x#5#58
 x#5#59
 x#5#60
 x#5#61
 x#5#62
 x#5#63
 x#5#64
 x#5#65
 x#5#66
 x#5#67
 x#5#68
 x#5#69
 x#5#70
 x#5#71
 x#5#72
 x#5#73
 x#5#74
 x#5#75
 x#5#76
 x#5#77
 x#5#78
 x#5#79
 x#5#80
 x#5#81
 x#5#82
 x#5#83
 x#5#84
 x#5#85
 x#5#86
 x#5#87
 x#5#88
 x#5#89
 x#5#90
 x#5#91
 x#5#92
 x#5#93
 x#5#94
 x#5#95
 x#5#96
 x#5#97
 x#5#98
 x#5#99
 x#5#100
End
