src/zimpl/instances/knapsack100nr4.txt
# Nr of Items 
100
# Nr of Knapsacks 
5
# Nr of Constraints 
2
# Items profits:
89 
37 
14 
48 
15 
93 
22 
36 
49 
82 
96 
89 
22 
27 
37 
41 
40 
48 
98 
95 
3 
76 
95 
56 
78 
1 
13 
14 
85 
86 
23 
48 
45 
77 
60 
53 
61 
18 
70 
18 
66 
41 
91 
8 
55 
4 
37 
43 
43 
14 
1 
14 
98 
96 
85 
60 
40 
61 
96 
63 
13 
14 
90 
63 
78 
11 
20 
18 
5 
70 
58 
68 
79 
65 
72 
82 
52 
23 
16 
68 
73 
92 
81 
60 
18 
34 
97 
29 
31 
97 
97 
53 
51 
70 
67 
71 
24 
84 
13 
31 

# Items weights:
98 36 
58 51 
3 34 
43 12 
4 93 
85 90 
75 81 
30 93 
11 64 
4 11 
33 88 
20 66 
55 71 
98 69 
93 33 
92 61 
3 64 
91 7 
28 2 
78 1 
14 84 
41 53 
84 14 
63 42 
61 95 
71 58 
8 92 
93 31 
22 11 
80 18 
8 40 
46 52 
25 30 
63 94 
2 63 
24 88 
24 21 
14 88 
4 54 
88 77 
57 68 
48 66 
46 31 
20 31 
48 64 
45 66 
7 4 
24 83 
27 33 
4 39 
8 16 
56 44 
39 68 
43 49 
25 40 
61 56 
85 85 
19 15 
23 51 
9 72 
46 95 
34 75 
100 31 
5 59 
53 40 
19 70 
38 33 
18 81 
69 73 
18 25 
64 16 
32 32 
31 6 
90 52 
82 73 
11 44 
34 51 
64 14 
39 22 
40 16 
78 76 
10 83 
30 93 
69 62 
24 23 
56 89 
50 100 
61 63 
28 60 
58 74 
24 32 
91 24 
38 84 
43 92 
95 96 
45 41 
22 43 
46 24 
90 64 
53 7 
# Knapsacks:
494 478 
436 549 
402 481 
394 517 
1352 1613 
